\ LP format - for model browsing. Use MPS format to capture full model detail.
Maximize
  8 x_1 + 5 x_2 + 8 x_3 + 2 x_4 + 5 x_5 + 3 x_6 + 5 x_7 + 10 x_8 + 3 x_9
   + 5 x_10 + x_11 + 3 x_12 + 2 x_13 + 7 x_14 + 2 x_15 + 9 x_16 + 10 x_17
   + 7 x_18 + 9 x_19 + x_20 + 3 x_21 + 9 x_22 + 4 x_23 + 5 x_24 + x_25
Subject To
 C_1: x_1 + 5 x_2 + 8 x_3 + 9 x_4 + 3 x_5 + 7 x_6 + 6 x_7 + 9 x_8 + 4 x_9
   + 9 x_10 + 4 x_11 + 7 x_12 + 5 x_13 + 3 x_14 + x_15 + 9 x_16 + 3 x_17
   + 3 x_18 + x_19 + 2 x_20 + 6 x_21 + x_22 + 3 x_23 + 4 x_24 + x_25 <= 57
 C_2: 3 x_1 + 9 x_2 + 10 x_3 + 8 x_4 + 5 x_5 + 2 x_6 + x_7 + 9 x_8 + x_9
   + 9 x_10 + 3 x_11 + 7 x_12 + 6 x_13 + 2 x_14 + 3 x_15 + 4 x_16 + 5 x_17
   + x_18 + x_19 + 7 x_20 + x_21 + 9 x_22 + 2 x_23 + 5 x_24 + x_25 <= 57
 C_3: 5 x_1 + 2 x_2 + 4 x_3 + 7 x_4 + 5 x_5 + 4 x_6 + x_7 + 3 x_8 + 5 x_9
   + x_10 + 8 x_11 + 9 x_12 + x_13 + 6 x_14 + 9 x_15 + 9 x_16 + 9 x_17
   + 8 x_18 + 4 x_19 + 10 x_20 + 10 x_21 + 9 x_22 + 6 x_23 + 2 x_24 + x_25
   <= 69
 C_4: 4 x_1 + 2 x_2 + 10 x_3 + 7 x_4 + 8 x_5 + 2 x_6 + x_7 + 9 x_8 + 7 x_9
   + 9 x_10 + 3 x_11 + x_12 + 2 x_13 + 6 x_14 + 7 x_15 + 2 x_16 + 5 x_17
   + 5 x_18 + 2 x_19 + 10 x_20 + 6 x_21 + 2 x_22 + 10 x_23 + 3 x_24
   + 7 x_25 <= 65
 C_5: x_1 + 4 x_2 + 7 x_3 + 6 x_4 + 7 x_5 + 8 x_6 + 10 x_7 + 8 x_8 + 9 x_9
   + 6 x_10 + 7 x_11 + 10 x_12 + 9 x_13 + 5 x_14 + 7 x_15 + 9 x_16 + 9 x_17
   + 9 x_18 + 10 x_19 + 4 x_20 + 7 x_21 + x_22 + 10 x_23 + 2 x_24 + 4 x_25
   <= 84
Bounds
Binaries
 x_1 x_2 x_3 x_4 x_5 x_6 x_7 x_8 x_9 x_10 x_11 x_12 x_13 x_14 x_15 x_16
 x_17 x_18 x_19 x_20 x_21 x_22 x_23 x_24 x_25
End
